
 102   30
  10   10   10   10   10   10   10   10   10   10   10   10   10   10   10   10   10   10   10   10   10   10   10   10   10   10   10   10   10   10

   0   0   0   0   0   0   0   0   0   0   0   0   0   0   0   0   0   0   0   0   0   0   0   0   0   0   0   0   0   0   0  22 2 3 4 5 6 7 8 10 11 12 13 15 16 17 20 22 27 32 33 40 41 50 
  10   0   0   0   0   1   0   0   3   0   0   0   0   0   0   0   0   0   0   0   0   0   1   0   1   0   1   0   0   1   1  11 65 63 52 42 31 30 29 26 23 19 9 
   5   0   0   2   0   0   0   0   0   0   0   0   0   0   0   0   0   0   0   3   0   1   0   0   0   0   0   0   0   7   3  17 98 72 71 70 66 65 63 61 57 54 47 46 34 31 30 25 24 
   8   5   0   0   0   0   4   0   0   0   3   0   0   0   0   0   0   0   0   0   0   7   0   1   0   0   0   0   0   0   0  13 71 57 56 54 52 49 44 43 35 31 30 21 14 
   1   0   0   0   1   0   0   0   0   1   0   0   0   0   2   0   0   0   1   0   0   0   0   0   9   0   0   0   0   0   0  15 66 65 62 57 54 48 45 43 39 36 35 34 31 25 23 
   2   4   0   0   0   0   0   0   0   0   0   0   0   0   0   0   0   0   0   0   0   0   0   0   0   0   0   0   0   0   0  13 101 99 69 62 59 53 49 48 44 38 35 34 18 
   4   9   0   0   0   9   0   0   7   0   0   0   1   0   0   1   2   3   0   0   0   0   0   0   0   1   0   0   0   0   0  14 100 70 69 62 61 59 57 49 48 46 44 36 34 25 
   5   0   1   4   0   0   0   2   0   0   0   0   0   0   0   0   0   0   9   0   0   0   0   0   0   0   0   0   0   0   0  13 100 68 64 63 62 60 57 52 47 44 43 30 23 
   9   0   0   2   6   0   0   0   0   0   0   0   0   0   0   0   0   0   0   0   0   0   0   0   0   3   0   0   0   5   6  17 100 94 88 72 71 66 62 61 59 57 56 49 47 46 37 36 34 
   7   2   0   0   0   6   0   3   0   3   0   0   0   0   0   0   0   6   0   0   0   0   0   0   3   0   0   0   0   0   6  17 101 99 98 93 89 71 70 69 59 58 57 56 55 54 51 48 28 
   7   0   0   0   5   0   2   0   0   0   0   0   0   0   0   0   0   0   0   0   1   5   0   0   0   0   0   0   1   0   2   8 99 63 60 57 52 47 31 23 
   4   0   0   0   0   6   0   0   7   0   0   0   0   0   0   0   0   5   0   0   0   0   0   5   0   0   0   2   0   0   0  20 100 99 96 87 71 70 69 68 66 65 64 61 59 58 56 54 53 52 51 44 
   8   0   0   0   0   0   0   0   0   6   0   0   0   0   0   0   0   0   0   7   6   4   0   0   8   0   5   0   0   0   0  16 101 100 94 88 72 68 62 61 60 58 57 56 52 48 47 36 
   7   0   0   0   0   0   0   0   0   9   4   0   0   0   0   0   0   0   0   0   0   6   0   0   0   0   0   0   0   0   0   8 101 99 92 68 60 47 36 23 
   7   0   0   0   0   0   0   0   0   0   0   0   0   0   4  10   0   0   0   0   6   5   0   0   0   0   0   0   0   0   0  19 101 100 99 98 97 96 94 93 85 68 64 62 60 59 57 55 52 51 48 
   1   0   5   7   0   0   7   0   0   0   0   0   0   0   0   0   0   0   0   0   7   7   0   0   0   0   0   0   0   6   0  20 99 98 97 96 94 92 90 89 85 72 69 67 64 61 58 55 54 53 51 48 
   3   0   0   0   0   0   0   0   0   0   0   0   0   0   0   0   0   0   0   0   9   0   0   0   0   0   0   0   0   0   0  18 101 100 98 96 94 93 92 87 79 71 69 67 59 56 55 54 51 49 
   3   0   0   0   0   0   0   0  10   7   0   0   0   0   0   0   4   9   0   0   0   0   0   0   0   0   0   0   0   0   0  14 100 94 87 82 71 68 67 61 60 58 56 52 47 36 
   2   0   0   0   0   0   0   0   0   0   0   0   0   0   5   0   0   0   7   0   8   0   8   0   6   0   0   0   0   0   0  21 100 99 98 97 94 93 92 91 90 89 87 85 84 82 70 68 64 62 55 53 51 
   4   0   0   0   0   0   0   0   0   0   0   0   0   0   0   7   0   0   0   0   0   0   0   0   0   0   6   0   0   0   0  13 98 97 93 86 70 69 68 64 53 52 51 48 47 
  10   8   0   0   0   0   0   0   0   0   0   0   0   0   0   0   0   0   0   0   0   0   0   0   0   0   0   0   0   0   0  19 101 100 98 94 92 89 87 85 83 80 79 72 68 67 64 60 59 58 53 
   8   0   0   0   0   0   7   0   0   6   0   0   0   0   0   0   0   5   0   0   0   0   0   0   0   0   0   0   0   0   9  17 101 98 97 95 94 84 81 80 79 78 71 69 68 67 63 55 52 
   2   0   0   0   0   0   0   0   6   0   0   1   0   0   0   0   0   0   0   0   0   0   0   0   0   3   0   0   0   0   0  15 97 96 91 89 87 85 70 69 67 61 59 58 55 53 51 
   4   0   0   0   0   0   0   4   0   0   0   0   8   0   0   0   0   0   0   0   0   0   0   7   0   0   0   0   0   0   0  11 101 94 90 85 69 67 62 59 55 51 48 
   4   6   0   0   0   0   0   0   0   0   0   0   0   0   0   0   0   0   0   0   0   0   0   0   0   7   0   0   0   0   0  14 99 94 87 86 85 82 80 79 75 67 56 55 53 52 
   5   3   0   0   0   0   0   0   0   0   0   0   0   0   0   0   0  10   0   0   0   0   0   0  10   0   0   0   0   0   0  12 94 92 86 84 83 77 75 72 61 57 53 47 
   5   0   0   0   0   0   0   0   0   0   0   0   0   0   0   0   0   0   0   4   0   9   0   0   5   0   0   0   0   0   8  15 98 96 94 91 88 87 86 84 82 80 79 78 64 63 52 
  10   4   0   0   9   0   0   0   0   0   0   0   0   1   0   0   5   0   0   0   0   3   0   0   0   0   0   0   0   0   0  10 100 94 92 83 82 79 67 65 60 42 
   4   0   0   0   0   0   0   0   0   0   9   0   0   0   0   0   0   0   0   0   6   0   0   0   0   0   0   0  10   0   0  21 101 99 98 95 93 92 91 90 89 88 87 84 83 82 81 80 77 76 75 73 67 
   6   0   0   0   0   0   0   0   0   0   0   0   3   0   4   0   0   0   5   0   0   0   0   0   0   0   0   2   0   0   0  13 99 97 93 91 90 88 85 82 79 78 77 58 51 
   2   0   0  10   0   0   0   0   3   0   0   0   0   0   0   0   0   0   0   0   0   0   0   0   9   0   0   0   0   0   0  17 101 100 95 94 92 88 87 85 81 80 78 77 76 68 67 64 59 
   7   0   0   0   0   0   7   0   0   0   0   0   8   9   0   0   0   3   0   0   0   0   0   0   0   0   0   0   0   0   0  11 99 98 87 86 82 81 80 77 76 64 47 
   9   0   0   0   0   0   0   0   0   0   0   0   0   0   0   6   0   0   0   0   0   0   8   0   0   0   0   0   4   0   0  11 98 96 94 93 90 81 79 75 68 60 48 
   5   0   0   0   0   5   0   0   0   0   0   0   0   0   0   0   0   0   0   0   0   0   0   0   0   0   0   0   0   0   0  14 92 91 90 89 86 85 83 82 79 78 77 73 67 58 
   4   9   0   0   0   0   0   0   0   0   0   0   0   0   0   0   0   0   0   0   0   0   0   0   0   0   0   0   0   0   0  15 98 90 89 88 87 85 83 82 81 80 79 77 76 68 64 
   8   0   0   6   0   8   0   0   0   0   0   0   0   0   0   7   0   0   0   0   0   0   8   0   0   0   0   0   0   0   0  10 98 91 89 86 79 78 77 76 64 51 
   4   0   0   9   0   0   6   0   0   0   9   5   0   0   0   0   0   0   0   0   0   0   3   0   0   0   0   0   0   0   0  15 95 93 91 90 87 86 83 82 81 80 79 76 75 73 67 
   3   0   7   9   0   0   8  10   0   0   0   0   0   0   0   0   0   0   0  10   0   0   0   0   0   0  10   0   0   0   0  13 94 88 86 85 82 81 80 79 78 77 74 73 58 
   7   0   9   0   0   0   0   0   0   0   0   0   8   9   0   0   9   0   0   0   0   0   0   0   0   0   0   0   0   0   0  12 99 94 92 87 86 83 82 80 79 78 74 55 
   3   0   0   0   0   0   0  10   0   0   0   0   0   0   0   0   8   0   9   0   0   0   0   0   0   0   0   0   0   0   0  11 95 91 89 87 80 79 78 77 74 68 58 
   6   0   0   5   5   0   0   0   0   0   0   0   0   0   0   0   0   0   0   0   0   0   0   0   5   0   8   0   0   0   0  12 99 96 93 92 85 81 79 77 76 74 73 69 
   8   0   0   0   0   6   0   0   0   0   0   0   0   0   0   0   0   0   0   0   0   0   0   0   0   5   8   0   6   0   0   6 96 84 80 77 64 53 
  10   0   0   4   0   0   0   0   0   0   4   0   0   0   0   5   0   0   0   0   0   0   0   0   6   0   6   0   0   0   0  10 97 92 89 87 83 82 81 77 76 73 
   5   6   0   0   0   0   0   0   0   0   0   0   0   0   0   0   0   0   0   6   0   0   0   6   0   0   0   0   0   0   7   9 95 94 89 83 80 78 75 73 67 
   4   0   0   0   0   6   0   0   0   0   0   0   0   0   0   0   6   0   0   0   0   0   0   0   0   0   0   0   0   0   0   9 93 92 90 88 79 76 75 74 73 
   9   0   0   7   0   0   0   0   0   0   0   0   0   0   0   4   0   0   0   3   0   0   0   8   6   0   0   0   0   0   0   6 96 92 83 76 75 60 
   7   0   0   0   5   0   0   0   0   0   0   0   0   0   6   0   0   0   0   0   0   8   0   0   0   0   0   0   0   9   9   8 96 91 90 89 85 79 78 74 
   3   0   0   7   0   0   0   0   0   0   0   0   0   0   0   0   0   0   0  10   0   0   7   0   0   0   0   0   0   4   0   8 91 87 84 82 78 76 74 73 
   7   0   0   0   0   5   0   0   0   0   0   0   0   0   8   0   0   0   0   7   0   0   0   0   6   0   0   0   7   0   0   7 91 89 85 81 80 78 68 
   5   0   0   0   0   0   5   0   0   0   0   7   0   0   0   0   0   0   0   0   0   0   0   0   0   0   0   0   0   0   0   7 94 88 87 84 80 75 68 
   7   0   0   0   0   0   0   6   0   0   0   0   0   0   0   0   0   0   0   0   0   7   0   0   0   7   0   0   5   0   0   7 95 83 81 80 75 74 73 
   6   0   0   5   0   0   7   0   0   0   0   0   0   0   7   0   0   0   0   0   0   0   5   0   0   0   0   0   0   0   0   6 92 90 89 83 74 73 
   9   0   0   7   0   0   0   0   0   0   0   0   0   0   6   0  10  10   0   0   0   0   0   0   0   0   0   0   0   0   0   5 88 81 78 76 74 
   1   5   0   0   7   4   0   4   0   9   0   7   0   0   0   0   0   0   0   0   0   0   0   0   0   0   8  10   7   0   0   5 91 86 78 75 74 
   1   0   0   0   0   9   8   0   0   0   0   0   0   0   0   0   0   0   0   0   4   0   0   0   0   8   0   0   0   0   0   4 88 77 76 73 
   3   0   0   0   0   0   0   0   0   0   0   0   0   0   0   0   0   0   6   0   0   0   0   7   0   0   0  10   0   0   0   4 97 90 84 73 
   5   0   0   0   0   0   6   0   0   0   0   0   0   0   0   0   0   0   6   0   0   0  10  10   0   3   0   0   0   0   0   3 87 82 67 
   7   0   0   0   0   0   3   0   0   0   0   0   0   0   5   0   0   3   5   6   0   0   0   0   8   0   0   0   0   0   0   3 84 76 75 
   7   0   0   0   0   0   0   0   6   0   0   0   0   0   0   0   0   0   0   0   0   0   0   0   0   0   0   0   0   0   3   3 82 74 73 
  10   0   0   0   0   0   0   0   0   0   0   0   0   0   0   0   0   0   0   0   0   0   0   0   0   0   0   9   8   0   0   3 86 77 73 
   7   0   0   0   0   0   0   0   0   0   0   0   0   0   7   7   0   0   0   0   0   0   0   0   5   0   0   0   0   0   0   3 93 79 76 
   6   0   0   0   0   0   0   0   0   0   0   0   6   0   0   0   0   0   0   0   7   6   0   0   0   0   0   0   0   0   0   3 86 79 75 
   3   0   0   0   0   0   0   0   0   0   0   0   0   0   5   8   0   0   0   0   0   0   0   0   0   0   0   0   0   9   0   3 93 85 77 
   8   0   0   0   0   0   5   0   0   0   0   0   0   0  10   0   0   8   0   0   0   7   0   0   0   0   7   0   0   0   0   2 75 73 
   7   0   0   0   0   0   7   0   4   0   3   0   0   0   0   0   5   0   0   0   0   0   0   0   0   0   6   0   0   0   0   2 85 76 
   7   0   0   0   0   0   0   0   0   0   0   0   0   0   0   0   0   0   0   0   0   7   0   0   8   0   0   7   0   0   8   2 84 74 
   8  10   0   0   0   0   0   5   0   0   0   0   0   0   7   0   0   0   0   0   0   0   0   0   8   0   0   4   0   5   0   1 74 
   8   0   0   0   0   0   0   0   0   0   0   0   0   0   0   0   0   0   0   0   0   7   0   0   0   0   0   0   0   0   0   1 73 
   6   0   0   0   0   0   8   0   0   0   0   0   0   0   0   0   0   8   4   0   0   0   0   0   0  10   0   0   0   9   0   1 75 
   4   0   0   0   0   0   0   0   0   0   0   0   0   0   0   5   0   0   0   0   0   0   0   0   0   0   0   0   0   0   0   1 77 
   6   0   0   0   7   0   0   0   0   0   0   0   0   0   0   0   5   0   0   0   0   0   0   7   0   0   0   0   4   0   0   1 86 
   2   0   0   0   0   0   0   8   0   0   0   0   0   0   4   0   0   0   0   5   0   0   0   0   0   0   0   0   0   0   0   1 74 
   9   0   0   0   0   0   0   0   0   0   0   0   0   0   0   0   0   0   0   0   0   0   0   0   2   0   0   0   0   0   0   1 102
   8   0   0   0   0   0   0   0   0   0   6   0   0   0   0   0   0   0   0   0   0   0   0   0   0   0   0   0   0   0   0   1 102
   9   0   6   0   0   0   0   0   0   0   0   0   0   0   0   0   0   0   0   0   0   0   0   5   0   0   0   4   7   0   0   1 102
   3   0   0   4   0   0   0   0   0   0   0   0   0   0   0   0   0   0   0   0   0   0   4   0   0   0   0   0   0   0   0   1 102
   5   0   0   0   0   0   0   0   0   0   0   9   7   0   0   0   0   0   0   0   0   0   0   0   0   0   0   0   0   0   0   1 102
   4   0   0   0   0   0   0   0  10   0   0   3   5   0   0   0   0   0   0   0   0   0   0   0   7   0   0   0   0   0   0   1 102
   8   0   0   0   0   0   0   0   6   0   5   0   0   0   0   0   0   0   6   0   0   0   0   0   0   0   0   0   0   0   0   1 102
   3   0   0   0   0   0   0   0   0   0   5   0   0   7   0   0   0   0   3   0   0   0   0   0   0   0   0   0   9   0   0   1 102
   2   0   0   0   0   0   0   0   0   0   0   0   0   0   0   0   0   0   0   6   0   0   0   6   0   0   0   0   0   0   0   1 102
   8   0   0  10   0   4   0   0   0   0   0   0   0   0   5   5   5   0   0   0   0   0   0   0   0   0   0   0   0   0   0   1 102
  10   0   0   0   0   0   0   0   5   0   0   0   0   2   0   0   0   0   7   6   0   0   0   0   0   0   0   0   0   0   4   1 102
  10   0   0   0   0   0   0   0   0   0   0  10   0   0   0   0   3   0   0   0   0   0   0   0   0   0   0   0   0   0   0   1 102
   7   0   0   0   0   0   0   0   4   4   0   0   5   0   0   6   0   0   0   0   0   0   0   0   0   0   0   0   0   0   0   1 102
   2   0   0   0   0   9   0   0   0   0   8   0   0   0   9   8   5   3   0   0   0   0   0   0   0   0   0   0   0   0   0   1 102
  10   0   6   4   0   0   0   9   0   0   0   0   0   0   8   0   0   0   0   5   2   8   0   0   0   0   0   0   0   0   0   1 102
   5   0   0   0   0   5   0   0   0   0   0   0   6   6   0   0   0   0  10   0   0   0   5   0   0   0   6   0   0   0   0   1 102
   6   0   0   0   0   0   0   0   0   0   0   0   0   0   0   0   0   0   0   0   0   0   0   0   0   0   0   0   8   0   0   1 102
   9   0   0   0   7   0   0   0   0   0   0   0   0   0   0   8   0   0   0   0   0   5   0   4   0   7   0   0   0   0   0   1 102
   5   0   0   9   0   0   2   0   0   0   0   0   0   6   0   0   0   0   7   0   0   0   0   0   0   0   0   0   0   5   0   1 102
   2   0   0   0   0   0   0   0   0   0   0   0   0   0   0   0   0   0   0   0   0   0   0   0   0   8   0   0   0   0   0   1 102
   7   0   8   0   0   0   0   0   0   0   0   0   0   0   6   0   0   0   0   0   0   0   0   0   0   0   2   0   0   0   6   1 102
   8   0   0   0   0   0  10   0   0   5   0   0   6   0   0   0   0   4   0   0   0   0   0   0   2   0   0   0   0   0   0   1 102
   8   5   0   0   0   0   0   0   7   0   6   0   9   0   0   0   0   0   0   0  10   6   0   0   0  10   0   0   2   0   0   1 102
   9   0   0   0   0   0   0   0   0   0   0   0   0   8   0   0   0   0   0   0   0   0   0   0   0   0   0   0   0   0   0   1 102
  10   7   0   0   0   0   0   0   0   0  10   0   0   6   0   4   9   7   0   0   0   0   0   0   6   0   0   0   0   0   0   1 102
   2   0   0   3   0   0   0   0   0  10   0   0   0   0   0   5   0   0   0   0   0   0   0   0   0   0   6   0   0   0   0   1 102
   5   0   0   0   0   7   0   5   0   0   0   0   0   0   0   0   0   0   5   0   0   0   0   0   0   0   0   0   0   0  10   1 102
   6   7   0   0   0   0   0   0   0   0   0   0   0   0   0   0   8   0   0   0   0   0   0   0   0   0   0   0   0   0   8   1 102
   9   0   0   0   8   0   0   0   0   0   0   0   0   0   0   0   0   0   0   0   0   0   7   0   0   0   5   0   0   0   0   1 102
   0   0   0   0   0   0   0   0   0   0   0   0   0   0   0   0   0   0   0   0   0   0   0   0   0   0   0   0   0   0   0   0 
